100
30
4
3
24
20
15
18
2
25
19
13
2
10
13
25
15
7
16
25
10
15
15
24
6
27
18
23
10
12
24
32
25
28
15
5
20
9
26
10
9
6
15
7
4
21
18
18
24
25
2
23
30
16
25
19
3
16
16
18
18
18
27
7
19
5
25
18
32
4
5
28
16
22
23
26
10
20
18
29
24
22
12
19
23
12
32
7
27
22
19
32
8
27
16
11
5
24
23
26
21
7